(set-info :source |printed by MathSAT|)
(declare-fun call_voiture.ite3 () Int)
(declare-fun speed.next () Int)
(declare-fun call_Sofar.flby.next () Bool)
(declare-fun call_voiture.flby6.next () Int)
(declare-fun call_Sofar.Sofar.next () Bool)
(declare-fun param_m.next () Bool)
(declare-fun stop.next () Bool)
(declare-fun call_voiture.ite2 () Int)
(declare-fun call_voiture.dist () Int)
(declare-fun call_voiture.second.next () Bool)
(declare-fun call_voiture.move.next () Bool)
(declare-fun call_voiture.flby6 () Int)
(declare-fun call_voiture.ite.next () Int)
(declare-fun call_voiture.second () Bool)
(declare-fun call_excludes2.excludes.next () Bool)
(declare-fun call_voiture.speed () Int)
(declare-fun speed () Int)
(declare-fun call_Sofar.Sofar () Bool)
(declare-fun call_voiture.meter.next () Bool)
(declare-fun call_voiture.bump () Bool)
(declare-fun call_voiture.flby5.next () Int)
(declare-fun call_voiture.toofast () Bool)
(declare-fun call_voiture.move () Bool)
(declare-fun call_voiture.flby4.next () Int)
(declare-fun call_voiture.stop () Bool)
(declare-fun dist () Int)
(declare-fun dist.next () Int)
(declare-fun param_m () Bool)
(declare-fun _OK_.next () Bool)
(declare-fun call_voiture.flby () Bool)
(declare-fun meter.next () Bool)
(declare-fun call_voiture.flby2.next () Bool)
(declare-fun time () Int)
(declare-fun call_voiture.ite4.next () Int)
(declare-fun param_s.next () Bool)
(declare-fun bump () Bool)
(declare-fun call_voiture.flby3.next () Bool)
(declare-fun call_voiture.bump.next () Bool)
(declare-fun call_Sofar.flby () Bool)
(declare-fun _OK_ () Bool)
(declare-fun call_voiture.flby3 () Bool)
(declare-fun call_voiture.stop.next () Bool)
(declare-fun meter () Bool)
(declare-fun call_voiture.flby4 () Int)
(declare-fun second () Bool)
(declare-fun toofast () Bool)
(declare-fun call_voiture.flby5 () Int)
(declare-fun param_s () Bool)
(declare-fun call_voiture.toofast.next () Bool)
(declare-fun call_voiture.time () Int)
(declare-fun call_voiture.ite2.next () Int)
(declare-fun call_voiture.speed.next () Int)
(declare-fun second.next () Bool)
(declare-fun time.next () Int)
(declare-fun call_voiture.meter () Bool)
(declare-fun move () Bool)
(declare-fun env.next () Bool)
(declare-fun call_voiture.ite3.next () Int)
(declare-fun env () Bool)
(declare-fun call_voiture.dist.next () Int)
(declare-fun call_voiture.flby2 () Bool)
(declare-fun call_voiture.flby.next () Bool)
(declare-fun stop () Bool)
(declare-fun move.next () Bool)
(declare-fun bump.next () Bool)
(declare-fun call_excludes2.excludes () Bool)
(declare-fun toofast.next () Bool)
(declare-fun call_voiture.time.next () Int)
(define-fun .def_519 () Bool (= call_Sofar.flby.next call_Sofar.Sofar.next))
(define-fun .def_515 () Bool (and param_s.next param_m.next))
(define-fun .def_516 () Bool (not .def_515))
(define-fun .def_517 () Bool (= call_excludes2.excludes.next .def_516))
(define-fun .def_513 () Bool (= call_voiture.meter.next call_voiture.flby.next))
(define-fun .def_511 () Bool (= call_voiture.second.next call_voiture.flby2.next))
(define-fun .def_508 () Bool (= call_voiture.move.next call_voiture.flby3.next))
(define-fun .def_505 () Bool (= call_voiture.ite3.next 0))
(define-fun .def_501 () Bool (not call_voiture.move.next))
(define-fun .def_502 () Bool (or call_voiture.second.next .def_501))
(define-fun .def_504 () Bool (not .def_502))
(define-fun .def_506 () Bool (or .def_504 .def_505))
(define-fun .def_500 () Bool (= call_voiture.ite2.next call_voiture.ite3.next))
(define-fun .def_503 () Bool (or .def_500 .def_502))
(define-fun .def_507 () Bool (and .def_503 .def_506))
(define-fun .def_509 () Bool (and .def_507 .def_508))
(define-fun .def_498 () Bool (= call_voiture.flby6.next call_voiture.time.next))
(define-fun .def_496 () Bool (= call_voiture.flby5.next call_voiture.speed.next))
(define-fun .def_494 () Bool (= call_voiture.flby4.next call_voiture.dist.next))
(define-fun .def_491 () Bool (= call_voiture.dist.next 10))
(define-fun .def_492 () Bool (= call_voiture.bump.next .def_491))
(define-fun .def_488 () Bool (<= 4 call_voiture.time.next))
(define-fun .def_489 () Bool (= call_voiture.stop.next .def_488))
(define-fun .def_485 () Bool (<= 3 call_voiture.speed.next))
(define-fun .def_486 () Bool (= call_voiture.toofast.next .def_485))
(define-fun .def_483 () Bool (= env.next call_Sofar.Sofar.next))
(define-fun .def_480 () Bool (= call_voiture.meter.next meter.next))
(define-fun .def_477 () Bool (= call_voiture.second.next second.next))
(define-fun .def_474 () Bool (= call_voiture.move.next move.next))
(define-fun .def_471 () Bool (= time.next call_voiture.time.next))
(define-fun .def_467 () Bool (= speed.next call_voiture.speed.next))
(define-fun .def_464 () Bool (= dist.next call_voiture.dist.next))
(define-fun .def_460 () Bool (= bump.next call_voiture.bump.next))
(define-fun .def_456 () Bool (= stop.next call_voiture.stop.next))
(define-fun .def_452 () Bool (= toofast.next call_voiture.toofast.next))
(define-fun .def_446 () Bool (<= 4 speed.next))
(define-fun .def_447 () Bool (not .def_446))
(define-fun .def_444 () Bool (not env.next))
(define-fun .def_448 () Bool (or .def_444 .def_447))
(define-fun .def_449 () Bool (= _OK_.next .def_448))
(define-fun .def_453 () Bool (and .def_449 .def_452))
(define-fun .def_457 () Bool (and .def_453 .def_456))
(define-fun .def_461 () Bool (and .def_457 .def_460))
(define-fun .def_465 () Bool (and .def_461 .def_464))
(define-fun .def_468 () Bool (and .def_465 .def_467))
(define-fun .def_472 () Bool (and .def_468 .def_471))
(define-fun .def_475 () Bool (and .def_472 .def_474))
(define-fun .def_478 () Bool (and .def_475 .def_477))
(define-fun .def_481 () Bool (and .def_478 .def_480))
(define-fun .def_484 () Bool (and .def_481 .def_483))
(define-fun .def_487 () Bool (and .def_484 .def_486))
(define-fun .def_490 () Bool (and .def_487 .def_489))
(define-fun .def_493 () Bool (and .def_490 .def_492))
(define-fun .def_495 () Bool (and .def_493 .def_494))
(define-fun .def_497 () Bool (and .def_495 .def_496))
(define-fun .def_499 () Bool (and .def_497 .def_498))
(define-fun .def_510 () Bool (and .def_499 .def_509))
(define-fun .def_512 () Bool (and .def_510 .def_511))
(define-fun .def_514 () Bool (and .def_512 .def_513))
(define-fun .def_518 () Bool (and .def_514 .def_517))
(define-fun .def_520 () Bool (and .def_518 .def_519))
(define-fun .def_361 () Bool (= call_Sofar.Sofar call_Sofar.flby))
(define-fun .def_355 () Bool (and param_s param_m))
(define-fun .def_356 () Bool (not .def_355))
(define-fun .def_358 () Bool (= .def_356 call_excludes2.excludes))
(define-fun .def_351 () Bool (= call_voiture.meter call_voiture.flby))
(define-fun .def_348 () Bool (= call_voiture.second call_voiture.flby2))
(define-fun .def_344 () Bool (= call_voiture.move call_voiture.flby3))
(define-fun .def_340 () Bool (= call_voiture.ite3 0))
(define-fun .def_336 () Bool (not call_voiture.move))
(define-fun .def_337 () Bool (or call_voiture.second .def_336))
(define-fun .def_339 () Bool (not .def_337))
(define-fun .def_341 () Bool (or .def_339 .def_340))
(define-fun .def_335 () Bool (= call_voiture.ite2 call_voiture.ite3))
(define-fun .def_338 () Bool (or .def_335 .def_337))
(define-fun .def_342 () Bool (and .def_338 .def_341))
(define-fun .def_345 () Bool (and .def_342 .def_344))
(define-fun .def_331 () Bool (= call_voiture.time call_voiture.flby6))
(define-fun .def_328 () Bool (= call_voiture.speed call_voiture.flby5))
(define-fun .def_325 () Bool (= call_voiture.dist call_voiture.flby4))
(define-fun .def_321 () Bool (= call_voiture.dist 10))
(define-fun .def_322 () Bool (= call_voiture.bump .def_321))
(define-fun .def_318 () Bool (<= 4 call_voiture.time))
(define-fun .def_319 () Bool (= call_voiture.stop .def_318))
(define-fun .def_315 () Bool (<= 3 call_voiture.speed))
(define-fun .def_316 () Bool (= call_voiture.toofast .def_315))
(define-fun .def_313 () Bool (= env call_Sofar.Sofar))
(define-fun .def_310 () Bool (= meter call_voiture.meter))
(define-fun .def_306 () Bool (= second call_voiture.second))
(define-fun .def_302 () Bool (= move call_voiture.move))
(define-fun .def_298 () Bool (= time call_voiture.time))
(define-fun .def_294 () Bool (= speed call_voiture.speed))
(define-fun .def_291 () Bool (= dist call_voiture.dist))
(define-fun .def_287 () Bool (= bump call_voiture.bump))
(define-fun .def_283 () Bool (= stop call_voiture.stop))
(define-fun .def_279 () Bool (= toofast call_voiture.toofast))
(define-fun .def_273 () Bool (<= 4 speed))
(define-fun .def_274 () Bool (not .def_273))
(define-fun .def_271 () Bool (not env))
(define-fun .def_275 () Bool (or .def_271 .def_274))
(define-fun .def_276 () Bool (= _OK_ .def_275))
(define-fun .def_280 () Bool (and .def_276 .def_279))
(define-fun .def_284 () Bool (and .def_280 .def_283))
(define-fun .def_288 () Bool (and .def_284 .def_287))
(define-fun .def_292 () Bool (and .def_288 .def_291))
(define-fun .def_295 () Bool (and .def_292 .def_294))
(define-fun .def_299 () Bool (and .def_295 .def_298))
(define-fun .def_303 () Bool (and .def_299 .def_302))
(define-fun .def_307 () Bool (and .def_303 .def_306))
(define-fun .def_311 () Bool (and .def_307 .def_310))
(define-fun .def_314 () Bool (and .def_311 .def_313))
(define-fun .def_317 () Bool (and .def_314 .def_316))
(define-fun .def_320 () Bool (and .def_317 .def_319))
(define-fun .def_323 () Bool (and .def_320 .def_322))
(define-fun .def_326 () Bool (and .def_323 .def_325))
(define-fun .def_329 () Bool (and .def_326 .def_328))
(define-fun .def_332 () Bool (and .def_329 .def_331))
(define-fun .def_346 () Bool (and .def_332 .def_345))
(define-fun .def_349 () Bool (and .def_346 .def_348))
(define-fun .def_352 () Bool (and .def_349 .def_351))
(define-fun .def_359 () Bool (and .def_352 .def_358))
(define-fun .def_362 () Bool (and .def_359 .def_361))
(define-fun .def_521 () Bool (and .def_362 .def_520))
(define-fun .def_438 () Bool (or call_Sofar.Sofar call_excludes2.excludes.next))
(define-fun .def_440 () Bool (= .def_438 call_Sofar.flby.next))
(define-fun .def_435 () Bool (= call_voiture.ite4.next call_voiture.flby6.next))
(define-fun .def_432 () Bool (= call_voiture.flby5.next call_voiture.ite3.next))
(define-fun .def_428 () Bool (= call_voiture.ite.next call_voiture.flby4.next))
(define-fun .def_422 () Bool (not call_voiture.bump))
(define-fun .def_420 () Bool (not call_voiture.toofast))
(define-fun .def_418 () Bool (not call_voiture.stop))
(define-fun .def_419 () Bool (and call_voiture.move .def_418))
(define-fun .def_421 () Bool (and .def_419 .def_420))
(define-fun .def_423 () Bool (and .def_421 .def_422))
(define-fun .def_425 () Bool (= .def_423 call_voiture.flby3.next))
(define-fun .def_416 () Bool (= param_s.next call_voiture.flby2.next))
(define-fun .def_409 () Bool (not param_s.next))
(define-fun .def_411 () Bool (and .def_409 param_m.next))
(define-fun .def_413 () Bool (= .def_411 call_voiture.flby.next))
(define-fun .def_404 () Bool (not call_voiture.second.next))
(define-fun .def_401 () Int (* (- 1) call_voiture.ite4.next))
(define-fun .def_402 () Int (+ call_voiture.time .def_401))
(define-fun .def_403 () Bool (= .def_402 (- 1)))
(define-fun .def_405 () Bool (or .def_403 .def_404))
(define-fun .def_398 () Bool (= call_voiture.time call_voiture.ite4.next))
(define-fun .def_400 () Bool (or .def_398 call_voiture.second.next))
(define-fun .def_406 () Bool (and .def_400 .def_405))
(define-fun .def_391 () Int (* (- 1) call_voiture.ite.next))
(define-fun .def_392 () Int (+ call_voiture.dist .def_391))
(define-fun .def_393 () Bool (= .def_392 (- 1)))
(define-fun .def_380 () Bool (and call_voiture.move.next call_voiture.meter.next))
(define-fun .def_385 () Bool (not .def_380))
(define-fun .def_394 () Bool (or .def_385 .def_393))
(define-fun .def_389 () Bool (= call_voiture.dist call_voiture.ite.next))
(define-fun .def_390 () Bool (or .def_380 .def_389))
(define-fun .def_395 () Bool (and .def_390 .def_394))
(define-fun .def_382 () Int (* (- 1) call_voiture.ite2.next))
(define-fun .def_383 () Int (+ call_voiture.speed .def_382))
(define-fun .def_384 () Bool (= .def_383 (- 1)))
(define-fun .def_386 () Bool (or .def_384 .def_385))
(define-fun .def_377 () Bool (= call_voiture.speed call_voiture.ite2.next))
(define-fun .def_381 () Bool (or .def_377 .def_380))
(define-fun .def_387 () Bool (and .def_381 .def_386))
(define-fun .def_396 () Bool (and .def_387 .def_395))
(define-fun .def_407 () Bool (and .def_396 .def_406))
(define-fun .def_414 () Bool (and .def_407 .def_413))
(define-fun .def_417 () Bool (and .def_414 .def_416))
(define-fun .def_426 () Bool (and .def_417 .def_425))
(define-fun .def_429 () Bool (and .def_426 .def_428))
(define-fun .def_433 () Bool (and .def_429 .def_432))
(define-fun .def_436 () Bool (and .def_433 .def_435))
(define-fun .def_441 () Bool (and .def_436 .def_440))
(define-fun .def_522 () Bool (and .def_441 .def_521))
(assert .def_522)
